c strEdges: 125  randomEdges: 504 
c degrees:  1  2 
c girth: Inf max: -43.604516  
c Hgirth mixed MAXCUT instance
c generated from an undirected graph
c to solve unweighted MaxCut
p cnf 140 1258
15 138 0
-15 -138 0
15 68 0
-15 -68 0
83 132 0
-83 -132 0
83 113 0
-83 -113 0
101 139 0
-101 -139 0
102 105 0
-102 -105 0
102 42 0
-102 -42 0
55 69 0
-55 -69 0
55 47 0
-55 -47 0
112 20 0
-112 -20 0
112 139 0
-112 -139 0
70 84 0
-70 -84 0
70 117 0
-70 -117 0
92 79 0
-92 -79 0
92 11 0
-92 -11 0
44 64 0
-44 -64 0
44 59 0
-44 -59 0
31 89 0
-31 -89 0
31 2 0
-31 -2 0
10 37 0
-10 -37 0
134 90 0
-134 -90 0
134 9 0
-134 -9 0
81 56 0
-81 -56 0
137 117 0
-137 -117 0
137 66 0
-137 -66 0
39 113 0
-39 -113 0
39 118 0
-39 -118 0
1 46 0
-1 -46 0
1 95 0
-1 -95 0
22 13 0
-22 -13 0
22 25 0
-22 -25 0
14 33 0
-14 -33 0
14 65 0
-14 -65 0
18 47 0
-18 -47 0
18 77 0
-18 -77 0
122 41 0
-122 -41 0
122 69 0
-122 -69 0
93 72 0
-93 -72 0
93 98 0
-93 -98 0
99 91 0
-99 -91 0
99 20 0
-99 -20 0
50 36 0
-50 -36 0
50 125 0
-50 -125 0
29 54 0
-29 -54 0
29 130 0
-29 -130 0
74 35 0
-74 -35 0
114 73 0
-114 -73 0
114 61 0
-114 -61 0
32 21 0
-32 -21 0
32 26 0
-32 -26 0
106 43 0
-106 -43 0
106 6 0
-106 -6 0
121 68 0
-121 -68 0
121 46 0
-121 -46 0
131 59 0
-131 -59 0
131 110 0
-131 -110 0
40 28 0
-40 -28 0
49 98 0
-49 -98 0
49 3 0
-49 -3 0
126 2 0
-126 -2 0
115 77 0
-115 -77 0
136 17 0
-136 -17 0
111 97 0
-111 -97 0
111 107 0
-111 -107 0
96 5 0
-96 -5 0
96 13 0
-96 -13 0
52 42 0
-52 -42 0
52 33 0
-52 -33 0
140 30 0
-140 -30 0
140 21 0
-140 -21 0
123 124 0
-123 -124 0
123 138 0
-123 -138 0
58 11 0
-58 -11 0
94 8 0
-94 -8 0
94 45 0
-94 -45 0
119 95 0
-119 -95 0
53 128 0
-53 -128 0
67 3 0
-67 -3 0
67 128 0
-67 -128 0
86 129 0
-86 -129 0
86 56 0
-86 -56 0
75 107 0
-75 -107 0
75 73 0
-75 -73 0
34 87 0
-34 -87 0
34 16 0
-34 -16 0
80 65 0
-80 -65 0
80 8 0
-80 -8 0
88 104 0
-88 -104 0
88 97 0
-88 -97 0
78 103 0
-78 -103 0
57 130 0
-57 -130 0
57 91 0
-57 -91 0
48 71 0
-48 -71 0
48 64 0
-48 -64 0
63 66 0
-63 -66 0
63 54 0
-63 -54 0
108 26 0
-108 -26 0
108 132 0
-108 -132 0
23 120 0
-23 -120 0
23 89 0
-23 -89 0
24 45 0
-24 -45 0
24 103 0
-24 -103 0
51 19 0
-51 -19 0
51 76 0
-51 -76 0
38 6 0
-38 -6 0
38 19 0
-38 -19 0
109 25 0
-109 -25 0
109 79 0
-109 -79 0
116 16 0
-116 -16 0
116 129 0
-116 -129 0
127 9 0
-127 -9 0
133 135 0
-133 -135 0
133 35 0
-133 -35 0
100 118 0
-100 -118 0
100 5 0
-100 -5 0
60 85 0
-60 -85 0
82 76 0
-82 -76 0
82 90 0
-82 -90 0
27 62 0
-27 -62 0
27 17 0
-27 -17 0
12 61 0
-12 -61 0
12 36 0
-12 -36 0
7 110 0
-7 -110 0
7 30 0
-7 -30 0
4 125 0
-4 -125 0
37 73 0
-37 -73 0
121 58 0
-121 -58 0
92 96 0
-92 -96 0
15 62 0
-15 -62 0
75 127 0
-75 -127 0
140 75 0
-140 -75 0
52 56 0
-52 -56 0
102 34 0
-102 -34 0
10 119 0
-10 -119 0
127 117 0
-127 -117 0
53 45 0
-53 -45 0
15 83 0
-15 -83 0
65 125 0
-65 -125 0
1 50 0
-1 -50 0
28 8 0
-28 -8 0
134 22 0
-134 -22 0
99 45 0
-99 -45 0
14 115 0
-14 -115 0
78 38 0
-78 -38 0
121 138 0
-121 -138 0
34 108 0
-34 -108 0
18 123 0
-18 -123 0
21 28 0
-21 -28 0
34 2 0
-34 -2 0
82 79 0
-82 -79 0
36 28 0
-36 -28 0
94 19 0
-94 -19 0
58 113 0
-58 -113 0
84 19 0
-84 -19 0
29 104 0
-29 -104 0
92 19 0
-92 -19 0
8 61 0
-8 -61 0
100 56 0
-100 -56 0
34 51 0
-34 -51 0
94 35 0
-94 -35 0
44 117 0
-44 -117 0
39 50 0
-39 -50 0
138 3 0
-138 -3 0
63 108 0
-63 -108 0
81 50 0
-81 -50 0
19 118 0
-19 -118 0
18 21 0
-18 -21 0
28 30 0
-28 -30 0
13 87 0
-13 -87 0
121 25 0
-121 -25 0
119 67 0
-119 -67 0
112 66 0
-112 -66 0
112 31 0
-112 -31 0
22 113 0
-22 -113 0
2 42 0
-2 -42 0
131 96 0
-131 -96 0
15 91 0
-15 -91 0
96 62 0
-96 -62 0
75 109 0
-75 -109 0
126 68 0
-126 -68 0
57 12 0
-57 -12 0
96 2 0
-96 -2 0
101 131 0
-101 -131 0
41 120 0
-41 -120 0
24 110 0
-24 -110 0
12 124 0
-12 -124 0
111 132 0
-111 -132 0
93 115 0
-93 -115 0
2 6 0
-2 -6 0
106 5 0
-106 -5 0
136 19 0
-136 -19 0
58 107 0
-58 -107 0
82 42 0
-82 -42 0
7 61 0
-7 -61 0
82 69 0
-82 -69 0
46 26 0
-46 -26 0
70 131 0
-70 -131 0
68 125 0
-68 -125 0
13 135 0
-13 -135 0
29 28 0
-29 -28 0
140 124 0
-140 -124 0
43 125 0
-43 -125 0
120 45 0
-120 -45 0
127 107 0
-127 -107 0
1 21 0
-1 -21 0
30 61 0
-30 -61 0
49 13 0
-49 -13 0
102 116 0
-102 -116 0
99 105 0
-99 -105 0
101 12 0
-101 -12 0
106 41 0
-106 -41 0
57 128 0
-57 -128 0
122 9 0
-122 -9 0
73 98 0
-73 -98 0
121 61 0
-121 -61 0
86 113 0
-86 -113 0
37 46 0
-37 -46 0
98 77 0
-98 -77 0
23 7 0
-23 -7 0
93 34 0
-93 -34 0
121 117 0
-121 -117 0
91 68 0
-91 -68 0
69 72 0
-69 -72 0
103 45 0
-103 -45 0
45 9 0
-45 -9 0
44 75 0
-44 -75 0
122 115 0
-122 -115 0
23 28 0
-23 -28 0
124 71 0
-124 -71 0
123 64 0
-123 -64 0
84 107 0
-84 -107 0
70 34 0
-70 -34 0
93 136 0
-93 -136 0
79 104 0
-79 -104 0
102 137 0
-102 -137 0
123 36 0
-123 -36 0
20 103 0
-20 -103 0
126 51 0
-126 -51 0
115 42 0
-115 -42 0
6 118 0
-6 -118 0
138 54 0
-138 -54 0
55 37 0
-55 -37 0
58 129 0
-58 -129 0
74 32 0
-74 -32 0
14 74 0
-14 -74 0
39 4 0
-39 -4 0
39 131 0
-39 -131 0
94 78 0
-94 -78 0
70 130 0
-70 -130 0
122 59 0
-122 -59 0
7 3 0
-7 -3 0
100 17 0
-100 -17 0
114 20 0
-114 -20 0
12 113 0
-12 -113 0
28 125 0
-28 -125 0
10 114 0
-10 -114 0
60 97 0
-60 -97 0
18 24 0
-18 -24 0
102 140 0
-102 -140 0
105 43 0
-105 -43 0
96 107 0
-96 -107 0
18 131 0
-18 -131 0
93 60 0
-93 -60 0
35 2 0
-35 -2 0
111 37 0
-111 -37 0
22 58 0
-22 -58 0
34 17 0
-34 -17 0
56 107 0
-56 -107 0
72 3 0
-72 -3 0
29 3 0
-29 -3 0
79 17 0
-79 -17 0
134 16 0
-134 -16 0
123 30 0
-123 -30 0
136 110 0
-136 -110 0
49 109 0
-49 -109 0
43 66 0
-43 -66 0
92 77 0
-92 -77 0
126 87 0
-126 -87 0
6 62 0
-6 -62 0
34 79 0
-34 -79 0
14 103 0
-14 -103 0
12 56 0
-12 -56 0
42 65 0
-42 -65 0
126 54 0
-126 -54 0
137 127 0
-137 -127 0
4 6 0
-4 -6 0
102 95 0
-102 -95 0
19 6 0
-19 -6 0
41 9 0
-41 -9 0
18 76 0
-18 -76 0
20 125 0
-20 -125 0
10 94 0
-10 -94 0
105 130 0
-105 -130 0
138 37 0
-138 -37 0
16 135 0
-16 -135 0
106 56 0
-106 -56 0
108 65 0
-108 -65 0
77 11 0
-77 -11 0
10 117 0
-10 -117 0
93 114 0
-93 -114 0
86 17 0
-86 -17 0
96 36 0
-96 -36 0
74 140 0
-74 -140 0
4 61 0
-4 -61 0
67 97 0
-67 -97 0
136 96 0
-136 -96 0
114 95 0
-114 -95 0
1 84 0
-1 -84 0
134 122 0
-134 -122 0
123 48 0
-123 -48 0
32 73 0
-32 -73 0
1 109 0
-1 -109 0
116 9 0
-116 -9 0
15 121 0
-15 -121 0
131 94 0
-131 -94 0
49 24 0
-49 -24 0
109 42 0
-109 -42 0
80 66 0
-80 -66 0
55 26 0
-55 -26 0
137 32 0
-137 -32 0
4 71 0
-4 -71 0
32 54 0
-32 -54 0
38 7 0
-38 -7 0
29 63 0
-29 -63 0
92 74 0
-92 -74 0
18 42 0
-18 -42 0
123 86 0
-123 -86 0
32 131 0
-32 -131 0
100 11 0
-100 -11 0
40 126 0
-40 -126 0
105 71 0
-105 -71 0
33 8 0
-33 -8 0
10 23 0
-10 -23 0
140 13 0
-140 -13 0
133 9 0
-133 -9 0
132 139 0
-132 -139 0
48 28 0
-48 -28 0
124 95 0
-124 -95 0
31 21 0
-31 -21 0
1 93 0
-1 -93 0
1 117 0
-1 -117 0
72 68 0
-72 -68 0
74 46 0
-74 -46 0
78 82 0
-78 -82 0
115 26 0
-115 -26 0
15 74 0
-15 -74 0
94 26 0
-94 -26 0
77 66 0
-77 -66 0
79 124 0
-79 -124 0
133 4 0
-133 -4 0
29 79 0
-29 -79 0
10 29 0
-10 -29 0
140 78 0
-140 -78 0
102 5 0
-102 -5 0
2 25 0
-2 -25 0
31 54 0
-31 -54 0
14 133 0
-14 -133 0
37 107 0
-37 -107 0
7 41 0
-7 -41 0
137 46 0
-137 -46 0
93 61 0
-93 -61 0
15 38 0
-15 -38 0
93 128 0
-93 -128 0
130 25 0
-130 -25 0
59 97 0
-59 -97 0
116 12 0
-116 -12 0
126 43 0
-126 -43 0
70 127 0
-70 -127 0
131 100 0
-131 -100 0
33 118 0
-33 -118 0
102 6 0
-102 -6 0
124 16 0
-124 -16 0
44 8 0
-44 -8 0
123 107 0
-123 -107 0
58 108 0
-58 -108 0
117 21 0
-117 -21 0
8 76 0
-8 -76 0
122 3 0
-122 -3 0
4 105 0
-4 -105 0
4 85 0
-4 -85 0
102 136 0
-102 -136 0
103 118 0
-103 -118 0
14 108 0
-14 -108 0
60 128 0
-60 -128 0
10 27 0
-10 -27 0
55 96 0
-55 -96 0
32 42 0
-32 -42 0
64 113 0
-64 -113 0
44 79 0
-44 -79 0
102 30 0
-102 -30 0
53 80 0
-53 -80 0
109 90 0
-109 -90 0
137 53 0
-137 -53 0
111 21 0
-111 -21 0
126 27 0
-126 -27 0
7 76 0
-7 -76 0
16 85 0
-16 -85 0
64 43 0
-64 -43 0
15 57 0
-15 -57 0
80 61 0
-80 -61 0
133 71 0
-133 -71 0
58 57 0
-58 -57 0
131 138 0
-131 -138 0
122 106 0
-122 -106 0
23 11 0
-23 -11 0
102 130 0
-102 -130 0
127 47 0
-127 -47 0
94 85 0
-94 -85 0
50 2 0
-50 -2 0
79 28 0
-79 -28 0
137 136 0
-137 -136 0
52 69 0
-52 -69 0
14 117 0
-14 -117 0
137 30 0
-137 -30 0
101 91 0
-101 -91 0
108 69 0
-108 -69 0
99 76 0
-99 -76 0
14 36 0
-14 -36 0
92 72 0
-92 -72 0
33 91 0
-33 -91 0
1 43 0
-1 -43 0
30 125 0
-30 -125 0
83 39 0
-83 -39 0
44 32 0
-44 -32 0
126 82 0
-126 -82 0
108 13 0
-108 -13 0
24 46 0
-24 -46 0
1 128 0
-1 -128 0
126 17 0
-126 -17 0
119 109 0
-119 -109 0
6 76 0
-6 -76 0
80 62 0
-80 -62 0
115 24 0
-115 -24 0
112 57 0
-112 -57 0
1 97 0
-1 -97 0
79 64 0
-79 -64 0
75 26 0
-75 -26 0
22 117 0
-22 -117 0
94 25 0
-94 -25 0
70 64 0
-70 -64 0
140 47 0
-140 -47 0
106 40 0
-106 -40 0
94 82 0
-94 -82 0
12 72 0
-12 -72 0
102 133 0
-102 -133 0
12 30 0
-12 -30 0
132 3 0
-132 -3 0
109 89 0
-109 -89 0
32 85 0
-32 -85 0
32 103 0
-32 -103 0
101 37 0
-101 -37 0
73 2 0
-73 -2 0
52 135 0
-52 -135 0
123 108 0
-123 -108 0
27 64 0
-27 -64 0
1 22 0
-1 -22 0
114 68 0
-114 -68 0
20 130 0
-20 -130 0
131 118 0
-131 -118 0
13 62 0
-13 -62 0
41 61 0
-41 -61 0
138 35 0
-138 -35 0
101 24 0
-101 -24 0
75 72 0
-75 -72 0
48 125 0
-48 -125 0
127 95 0
-127 -95 0
47 72 0
-47 -72 0
58 61 0
-58 -61 0
108 73 0
-108 -73 0
37 129 0
-37 -129 0
64 2 0
-64 -2 0
78 125 0
-78 -125 0
36 77 0
-36 -77 0
93 23 0
-93 -23 0
140 3 0
-140 -3 0
82 2 0
-82 -2 0
88 5 0
-88 -5 0
108 87 0
-108 -87 0
73 124 0
-73 -124 0
102 138 0
-102 -138 0
124 104 0
-124 -104 0
127 97 0
-127 -97 0
10 7 0
-10 -7 0
106 36 0
-106 -36 0
83 135 0
-83 -135 0
99 118 0
-99 -118 0
131 54 0
-131 -54 0
60 129 0
-60 -129 0
90 56 0
-90 -56 0
74 135 0
-74 -135 0
72 130 0
-72 -130 0
38 64 0
-38 -64 0
10 4 0
-10 -4 0
29 49 0
-29 -49 0
70 139 0
-70 -139 0
87 25 0
-87 -25 0
131 119 0
-131 -119 0
112 136 0
-112 -136 0
99 43 0
-99 -43 0
18 126 0
-18 -126 0
57 5 0
-57 -5 0
17 45 0
-17 -45 0
70 108 0
-70 -108 0
78 21 0
-78 -21 0
139 19 0
-139 -19 0
99 104 0
-99 -104 0
15 139 0
-15 -139 0
29 73 0
-29 -73 0
31 24 0
-31 -24 0
102 70 0
-102 -70 0
111 35 0
-111 -35 0
83 94 0
-83 -94 0
94 37 0
-94 -37 0
100 132 0
-100 -132 0
94 54 0
-94 -54 0
21 87 0
-21 -87 0
132 128 0
-132 -128 0
34 43 0
-34 -43 0
18 68 0
-18 -68 0
2 130 0
-2 -130 0
67 23 0
-67 -23 0
24 38 0
-24 -38 0
92 119 0
-92 -119 0
70 54 0
-70 -54 0
121 118 0
-121 -118 0
83 92 0
-83 -92 0
115 11 0
-115 -11 0
77 9 0
-77 -9 0
55 115 0
-55 -115 0
44 65 0
-44 -65 0
101 23 0
-101 -23 0
41 3 0
-41 -3 0
39 97 0
-39 -97 0
81 65 0
-81 -65 0
95 125 0
-95 -125 0
31 77 0
-31 -77 0
139 20 0
-139 -20 0
39 18 0
-39 -18 0
39 65 0
-39 -65 0
5 118 0
-5 -118 0
35 17 0
-35 -17 0
81 75 0
-81 -75 0
122 107 0
-122 -107 0
66 135 0
-66 -135 0
116 72 0
-116 -72 0
83 32 0
-83 -32 0
78 41 0
-78 -41 0
108 128 0
-108 -128 0
23 4 0
-23 -4 0
63 43 0
-63 -43 0
14 13 0
-14 -13 0
113 28 0
-113 -28 0
49 53 0
-49 -53 0
81 17 0
-81 -17 0
55 13 0
-55 -13 0
78 27 0
-78 -27 0
121 75 0
-121 -75 0
131 16 0
-131 -16 0
22 71 0
-22 -71 0
10 78 0
-10 -78 0
8 95 0
-8 -95 0
111 53 0
-111 -53 0
86 23 0
-86 -23 0
84 35 0
-84 -35 0
106 91 0
-106 -91 0
81 140 0
-81 -140 0
119 76 0
-119 -76 0
100 30 0
-100 -30 0
10 82 0
-10 -82 0
49 57 0
-49 -57 0
136 54 0
-136 -54 0
138 73 0
-138 -73 0
84 47 0
-84 -47 0
70 35 0
-70 -35 0
75 87 0
-75 -87 0
100 46 0
-100 -46 0
101 9 0
-101 -9 0
79 87 0
-79 -87 0
99 78 0
-99 -78 0
39 104 0
-39 -104 0
108 5 0
-108 -5 0
49 11 0
-49 -11 0
24 85 0
-24 -85 0
113 19 0
-113 -19 0
116 2 0
-116 -2 0
36 103 0
-36 -103 0
126 105 0
-126 -105 0
24 89 0
-24 -89 0
34 135 0
-34 -135 0
101 98 0
-101 -98 0
24 6 0
-24 -6 0
102 72 0
-102 -72 0
52 17 0
-52 -17 0
1 19 0
-1 -19 0
114 140 0
-114 -140 0
108 28 0
-108 -28 0
18 105 0
-18 -105 0
17 8 0
-17 -8 0
39 17 0
-39 -17 0
92 10 0
-92 -10 0
103 25 0
-103 -25 0
24 132 0
-24 -132 0
86 132 0
-86 -132 0
98 9 0
-98 -9 0
56 117 0
-56 -117 0
115 103 0
-115 -103 0
82 77 0
-82 -77 0
17 124 0
-17 -124 0
48 118 0
-48 -118 0
60 105 0
-60 -105 0
97 16 0
-97 -16 0
47 11 0
-47 -11 0
83 68 0
-83 -68 0
17 5 0
-17 -5 0
127 62 0
-127 -62 0
92 98 0
-92 -98 0
72 42 0
-72 -42 0
75 91 0
-75 -91 0
106 76 0
-106 -76 0
96 11 0
-96 -11 0
116 61 0
-116 -61 0
21 5 0
-21 -5 0
102 46 0
-102 -46 0
40 84 0
-40 -84 0
31 136 0
-31 -136 0
82 13 0
-82 -13 0
55 38 0
-55 -38 0
139 89 0
-139 -89 0
96 79 0
-96 -79 0
